p cnf 430 1488
-191 -31 0
-191 105 0
-191 -127 0
-191 156 0
-191 -88 0
191 31 -105 127 -156 88 0
-192 -43 0
-192 184 0
-192 13 0
-192 -153 0
-192 -75 0
192 43 -184 -13 153 75 0
-193 -59 0
-193 -143 0
-193 -151 0
-193 -138 0
-193 34 0
193 59 143 151 138 -34 0
-194 134 0
-194 -129 0
-194 -46 0
-194 -14 0
-194 57 0
194 -134 129 46 14 -57 0
-195 -40 0
-195 70 0
-195 170 0
-195 -61 0
-195 124 0
195 40 -70 -170 61 -124 0
191 192 193 194 195 0
-196 -36 0
-196 -54 0
-196 173 0
-196 -185 0
-196 161 0
196 36 54 -173 185 -161 0
-197 -26 0
-197 8 0
-197 179 0
-197 5 0
-197 -30 0
197 26 -8 -179 -5 30 0
-198 130 0
-198 -90 0
-198 155 0
-198 165 0
-198 -96 0
198 -130 90 -155 -165 96 0
-199 -57 0
-199 -183 0
-199 38 0
-199 -117 0
-199 190 0
199 57 183 -38 117 -190 0
-200 32 0
-200 -82 0
-200 178 0
-200 -184 0
-200 -29 0
200 -32 82 -178 184 29 0
196 197 198 199 200 0
-201 143 0
-201 -84 0
-201 152 0
-201 15 0
-201 166 0
201 -143 84 -152 -15 -166 0
-202 33 0
-202 -184 0
-202 99 0
-202 -113 0
-202 86 0
202 -33 184 -99 113 -86 0
-203 39 0
-203 -59 0
-203 84 0
-203 190 0
-203 157 0
203 -39 59 -84 -190 -157 0
-204 44 0
-204 169 0
-204 -147 0
-204 149 0
-204 -179 0
204 -44 -169 147 -149 179 0
-205 -21 0
-205 10 0
-205 108 0
-205 84 0
-205 -118 0
205 21 -10 -108 -84 118 0
201 202 203 204 205 0
-206 118 0
-206 -95 0
-206 139 0
-206 -78 0
-206 -121 0
206 -118 95 -139 78 121 0
-207 -169 0
-207 105 0
-207 20 0
-207 -159 0
-207 -187 0
207 169 -105 -20 159 187 0
-208 90 0
-208 -164 0
-208 -167 0
-208 -45 0
-208 -22 0
208 -90 164 167 45 22 0
-209 -165 0
-209 55 0
-209 -152 0
-209 -102 0
-209 -11 0
209 165 -55 152 102 11 0
-210 84 0
-210 -69 0
-210 113 0
-210 156 0
-210 135 0
210 -84 69 -113 -156 -135 0
206 207 208 209 210 0
-211 -11 0
-211 184 0
-211 143 0
-211 57 0
-211 150 0
211 11 -184 -143 -57 -150 0
-212 137 0
-212 -171 0
-212 -124 0
-212 112 0
-212 185 0
212 -137 171 124 -112 -185 0
-213 -79 0
-213 -111 0
-213 23 0
-213 -96 0
-213 -78 0
213 79 111 -23 96 78 0
-214 141 0
-214 82 0
-214 -75 0
-214 -153 0
-214 105 0
214 -141 -82 75 153 -105 0
-215 -174 0
-215 -171 0
-215 -64 0
-215 34 0
-215 -71 0
215 174 171 64 -34 71 0
211 212 213 214 215 0
-216 148 0
-216 31 0
-216 123 0
-216 -67 0
-216 97 0
216 -148 -31 -123 67 -97 0
-217 54 0
-217 58 0
-217 32 0
-217 -82 0
-217 50 0
217 -54 -58 -32 82 -50 0
-218 -130 0
-218 25 0
-218 -155 0
-218 -32 0
-218 -119 0
218 130 -25 155 32 119 0
-219 83 0
-219 -92 0
-219 -75 0
-219 -111 0
-219 -141 0
219 -83 92 75 111 141 0
-220 -60 0
-220 37 0
-220 61 0
-220 -187 0
-220 15 0
220 60 -37 -61 187 -15 0
216 217 218 219 220 0
-221 -83 0
-221 116 0
-221 -34 0
-221 -105 0
-221 -179 0
221 83 -116 34 105 179 0
-222 44 0
-222 151 0
-222 -97 0
-222 -21 0
-222 108 0
222 -44 -151 97 21 -108 0
-223 150 0
-223 -164 0
-223 88 0
-223 154 0
-223 59 0
223 -150 164 -88 -154 -59 0
-224 190 0
-224 43 0
-224 48 0
-224 154 0
-224 -116 0
224 -190 -43 -48 -154 116 0
-225 9 0
-225 -104 0
-225 -98 0
-225 173 0
-225 135 0
225 -9 104 98 -173 -135 0
221 222 223 224 225 0
-226 -177 0
-226 -22 0
-226 63 0
-226 -31 0
-226 -174 0
226 177 22 -63 31 174 0
-227 80 0
-227 -167 0
-227 -17 0
-227 133 0
-227 99 0
227 -80 167 17 -133 -99 0
-228 -164 0
-228 36 0
-228 -35 0
-228 -175 0
-228 -85 0
228 164 -36 35 175 85 0
-229 -151 0
-229 90 0
-229 -83 0
-229 53 0
-229 2 0
229 151 -90 83 -53 -2 0
-230 148 0
-230 24 0
-230 79 0
-230 -9 0
-230 8 0
230 -148 -24 -79 9 -8 0
226 227 228 229 230 0
-231 67 0
-231 172 0
-231 70 0
-231 143 0
-231 -118 0
231 -67 -172 -70 -143 118 0
-232 -139 0
-232 70 0
-232 9 0
-232 -25 0
-232 78 0
232 139 -70 -9 25 -78 0
-233 -2 0
-233 -186 0
-233 -125 0
-233 45 0
-233 75 0
233 2 186 125 -45 -75 0
-234 57 0
-234 134 0
-234 -82 0
-234 -149 0
-234 94 0
234 -57 -134 82 149 -94 0
-235 47 0
-235 -10 0
-235 110 0
-235 157 0
-235 -146 0
235 -47 10 -110 -157 146 0
231 232 233 234 235 0
-236 1 0
-236 181 0
-236 172 0
-236 21 0
-236 58 0
236 -1 -181 -172 -21 -58 0
-237 117 0
-237 4 0
-237 -185 0
-237 45 0
-237 124 0
237 -117 -4 185 -45 -124 0
-238 73 0
-238 95 0
-238 -161 0
-238 -140 0
-238 -103 0
238 -73 -95 161 140 103 0
-239 71 0
-239 -64 0
-239 -75 0
-239 -30 0
-239 -150 0
239 -71 64 75 30 150 0
-240 -15 0
-240 -81 0
-240 -8 0
-240 165 0
-240 40 0
240 15 81 8 -165 -40 0
236 237 238 239 240 0
-241 -150 0
-241 147 0
-241 86 0
-241 -11 0
-241 173 0
241 150 -147 -86 11 -173 0
-242 -81 0
-242 92 0
-242 -76 0
-242 78 0
-242 -120 0
242 81 -92 76 -78 120 0
-243 11 0
-243 -179 0
-243 -116 0
-243 -124 0
-243 54 0
243 -11 179 116 124 -54 0
-244 -19 0
-244 -167 0
-244 54 0
-244 -58 0
-244 -180 0
244 19 167 -54 58 180 0
-245 -11 0
-245 -42 0
-245 -102 0
-245 -156 0
-245 -112 0
245 11 42 102 156 112 0
241 242 243 244 245 0
-246 168 0
-246 -176 0
-246 -158 0
-246 167 0
-246 -40 0
246 -168 176 158 -167 40 0
-247 -154 0
-247 145 0
-247 -69 0
-247 65 0
-247 124 0
247 154 -145 69 -65 -124 0
-248 13 0
-248 17 0
-248 -110 0
-248 188 0
-248 -45 0
248 -13 -17 110 -188 45 0
-249 -178 0
-249 -152 0
-249 -173 0
-249 127 0
-249 22 0
249 178 152 173 -127 -22 0
-250 61 0
-250 109 0
-250 -25 0
-250 166 0
-250 141 0
250 -61 -109 25 -166 -141 0
246 247 248 249 250 0
-251 10 0
-251 135 0
-251 -23 0
-251 -63 0
-251 -131 0
251 -10 -135 23 63 131 0
-252 188 0
-252 -130 0
-252 11 0
-252 -89 0
-252 -174 0
252 -188 130 -11 89 174 0
-253 -128 0
-253 -51 0
-253 -161 0
-253 68 0
-253 -75 0
253 128 51 161 -68 75 0
-254 -24 0
-254 152 0
-254 38 0
-254 -26 0
-254 15 0
254 24 -152 -38 26 -15 0
-255 -2 0
-255 150 0
-255 120 0
-255 189 0
-255 -53 0
255 2 -150 -120 -189 53 0
251 252 253 254 255 0
-256 131 0
-256 -31 0
-256 -27 0
-256 84 0
-256 -106 0
256 -131 31 27 -84 106 0
-257 110 0
-257 177 0
-257 118 0
-257 -29 0
-257 27 0
257 -110 -177 -118 29 -27 0
-258 -48 0
-258 4 0
-258 66 0
-258 -113 0
-258 135 0
258 48 -4 -66 113 -135 0
-259 -32 0
-259 -9 0
-259 -20 0
-259 85 0
-259 35 0
259 32 9 20 -85 -35 0
-260 -178 0
-260 -59 0
-260 164 0
-260 162 0
-260 -131 0
260 178 59 -164 -162 131 0
256 257 258 259 260 0
-261 104 0
-261 114 0
-261 -144 0
-261 131 0
-261 160 0
261 -104 -114 144 -131 -160 0
-262 100 0
-262 80 0
-262 -116 0
-262 128 0
-262 46 0
262 -100 -80 116 -128 -46 0
-263 -144 0
-263 -25 0
-263 -171 0
-263 -39 0
-263 -73 0
263 144 25 171 39 73 0
-264 -15 0
-264 8 0
-264 118 0
-264 9 0
-264 113 0
264 15 -8 -118 -9 -113 0
-265 -36 0
-265 -102 0
-265 -157 0
-265 13 0
-265 3 0
265 36 102 157 -13 -3 0
261 262 263 264 265 0
-266 -63 0
-266 131 0
-266 151 0
-266 -9 0
-266 78 0
266 63 -131 -151 9 -78 0
-267 12 0
-267 72 0
-267 50 0
-267 68 0
-267 -88 0
267 -12 -72 -50 -68 88 0
-268 -141 0
-268 -89 0
-268 -19 0
-268 -99 0
-268 -94 0
268 141 89 19 99 94 0
-269 158 0
-269 14 0
-269 -7 0
-269 111 0
-269 170 0
269 -158 -14 7 -111 -170 0
-270 -133 0
-270 107 0
-270 90 0
-270 159 0
-270 114 0
270 133 -107 -90 -159 -114 0
266 267 268 269 270 0
-271 119 0
-271 154 0
-271 -114 0
-271 93 0
-271 -53 0
271 -119 -154 114 -93 53 0
-272 -79 0
-272 -131 0
-272 -183 0
-272 -44 0
-272 -111 0
272 79 131 183 44 111 0
-273 -168 0
-273 -127 0
-273 152 0
-273 27 0
-273 -78 0
273 168 127 -152 -27 78 0
-274 6 0
-274 64 0
-274 -65 0
-274 -109 0
-274 54 0
274 -6 -64 65 109 -54 0
-275 148 0
-275 40 0
-275 125 0
-275 -178 0
-275 -184 0
275 -148 -40 -125 178 184 0
271 272 273 274 275 0
-276 40 0
-276 -95 0
-276 -16 0
-276 -17 0
-276 27 0
276 -40 95 16 17 -27 0
-277 158 0
-277 140 0
-277 25 0
-277 187 0
-277 3 0
277 -158 -140 -25 -187 -3 0
-278 -20 0
-278 -184 0
-278 34 0
-278 151 0
-278 -127 0
278 20 184 -34 -151 127 0
-279 -175 0
-279 -138 0
-279 -60 0
-279 161 0
-279 140 0
279 175 138 60 -161 -140 0
-280 104 0
-280 149 0
-280 32 0
-280 124 0
-280 97 0
280 -104 -149 -32 -124 -97 0
276 277 278 279 280 0
-281 177 0
-281 109 0
-281 -18 0
-281 -46 0
-281 117 0
281 -177 -109 18 46 -117 0
-282 -48 0
-282 31 0
-282 3 0
-282 -89 0
-282 166 0
282 48 -31 -3 89 -166 0
-283 -36 0
-283 -3 0
-283 -1 0
-283 127 0
-283 -57 0
283 36 3 1 -127 57 0
-284 -118 0
-284 16 0
-284 -189 0
-284 -116 0
-284 7 0
284 118 -16 189 116 -7 0
-285 147 0
-285 28 0
-285 -184 0
-285 72 0
-285 22 0
285 -147 -28 184 -72 -22 0
281 282 283 284 285 0
-286 -187 0
-286 -10 0
-286 -79 0
-286 -48 0
-286 21 0
286 187 10 79 48 -21 0
-287 168 0
-287 65 0
-287 -72 0
-287 103 0
-287 165 0
287 -168 -65 72 -103 -165 0
-288 133 0
-288 110 0
-288 -93 0
-288 -63 0
-288 -124 0
288 -133 -110 93 63 124 0
-289 -188 0
-289 -123 0
-289 186 0
-289 179 0
-289 -172 0
289 188 123 -186 -179 172 0
-290 -172 0
-290 -42 0
-290 98 0
-290 88 0
-290 43 0
290 172 42 -98 -88 -43 0
286 287 288 289 290 0
-291 -50 0
-291 159 0
-291 44 0
-291 47 0
-291 10 0
291 50 -159 -44 -47 -10 0
-292 -167 0
-292 87 0
-292 -43 0
-292 -79 0
-292 76 0
292 167 -87 43 79 -76 0
-293 -22 0
-293 -123 0
-293 -50 0
-293 -133 0
-293 -118 0
293 22 123 50 133 118 0
-294 -98 0
-294 -78 0
-294 106 0
-294 48 0
-294 39 0
294 98 78 -106 -48 -39 0
-295 -172 0
-295 -180 0
-295 -31 0
-295 120 0
-295 26 0
295 172 180 31 -120 -26 0
291 292 293 294 295 0
-296 154 0
-296 105 0
-296 37 0
-296 54 0
-296 126 0
296 -154 -105 -37 -54 -126 0
-297 123 0
-297 -132 0
-297 -188 0
-297 166 0
-297 1 0
297 -123 132 188 -166 -1 0
-298 -140 0
-298 -158 0
-298 43 0
-298 63 0
-298 -71 0
298 140 158 -43 -63 71 0
-299 65 0
-299 -141 0
-299 134 0
-299 57 0
-299 -170 0
299 -65 141 -134 -57 170 0
-300 -66 0
-300 75 0
-300 17 0
-300 -119 0
-300 74 0
300 66 -75 -17 119 -74 0
296 297 298 299 300 0
-301 -36 0
-301 -105 0
-301 139 0
-301 -55 0
-301 86 0
301 36 105 -139 55 -86 0
-302 76 0
-302 -36 0
-302 -151 0
-302 -78 0
-302 157 0
302 -76 36 151 78 -157 0
-303 67 0
-303 -38 0
-303 99 0
-303 61 0
-303 132 0
303 -67 38 -99 -61 -132 0
-304 143 0
-304 140 0
-304 -52 0
-304 123 0
-304 6 0
304 -143 -140 52 -123 -6 0
-305 -173 0
-305 172 0
-305 -125 0
-305 -142 0
-305 -143 0
305 173 -172 125 142 143 0
301 302 303 304 305 0
-306 -174 0
-306 -18 0
-306 -50 0
-306 -72 0
-306 177 0
306 174 18 50 72 -177 0
-307 -151 0
-307 -31 0
-307 -149 0
-307 -111 0
-307 -72 0
307 151 31 149 111 72 0
-308 113 0
-308 106 0
-308 -190 0
-308 151 0
-308 -134 0
308 -113 -106 190 -151 134 0
-309 140 0
-309 -4 0
-309 167 0
-309 -151 0
-309 13 0
309 -140 4 -167 151 -13 0
-310 -99 0
-310 -105 0
-310 -74 0
-310 170 0
-310 -20 0
310 99 105 74 -170 20 0
306 307 308 309 310 0
-311 180 0
-311 23 0
-311 10 0
-311 178 0
-311 109 0
311 -180 -23 -10 -178 -109 0
-312 97 0
-312 -25 0
-312 -16 0
-312 -179 0
-312 -113 0
312 -97 25 16 179 113 0
-313 166 0
-313 31 0
-313 -49 0
-313 170 0
-313 159 0
313 -166 -31 49 -170 -159 0
-314 -110 0
-314 53 0
-314 186 0
-314 -129 0
-314 -73 0
314 110 -53 -186 129 73 0
-315 141 0
-315 -121 0
-315 -146 0
-315 67 0
-315 33 0
315 -141 121 146 -67 -33 0
311 312 313 314 315 0
-316 7 0
-316 145 0
-316 -115 0
-316 -20 0
-316 60 0
316 -7 -145 115 20 -60 0
-317 -160 0
-317 23 0
-317 131 0
-317 -137 0
-317 65 0
317 160 -23 -131 137 -65 0
-318 120 0
-318 24 0
-318 100 0
-318 96 0
-318 171 0
318 -120 -24 -100 -96 -171 0
-319 -169 0
-319 144 0
-319 -86 0
-319 -32 0
-319 162 0
319 169 -144 86 32 -162 0
-320 -20 0
-320 -50 0
-320 6 0
-320 -90 0
-320 40 0
320 20 50 -6 90 -40 0
316 317 318 319 320 0
-321 -25 0
-321 -36 0
-321 -146 0
-321 -41 0
-321 -141 0
321 25 36 146 41 141 0
-322 131 0
-322 112 0
-322 88 0
-322 70 0
-322 -37 0
322 -131 -112 -88 -70 37 0
-323 4 0
-323 29 0
-323 -147 0
-323 8 0
-323 44 0
323 -4 -29 147 -8 -44 0
-324 -7 0
-324 133 0
-324 160 0
-324 90 0
-324 -14 0
324 7 -133 -160 -90 14 0
-325 105 0
-325 -74 0
-325 -69 0
-325 117 0
-325 -155 0
325 -105 74 69 -117 155 0
321 322 323 324 325 0
-326 -17 0
-326 113 0
-326 2 0
-326 95 0
-326 -19 0
326 17 -113 -2 -95 19 0
-327 -155 0
-327 -138 0
-327 111 0
-327 -54 0
-327 45 0
327 155 138 -111 54 -45 0
-328 -61 0
-328 164 0
-328 137 0
-328 154 0
-328 -22 0
328 61 -164 -137 -154 22 0
-329 -185 0
-329 83 0
-329 127 0
-329 -22 0
-329 -25 0
329 185 -83 -127 22 25 0
-330 -32 0
-330 -107 0
-330 182 0
-330 79 0
-330 -95 0
330 32 107 -182 -79 95 0
326 327 328 329 330 0
-331 172 0
-331 -189 0
-331 -56 0
-331 -2 0
-331 -91 0
331 -172 189 56 2 91 0
-332 90 0
-332 20 0
-332 -15 0
-332 -155 0
-332 -45 0
332 -90 -20 15 155 45 0
-333 7 0
-333 -50 0
-333 40 0
-333 177 0
-333 20 0
333 -7 50 -40 -177 -20 0
-334 156 0
-334 -121 0
-334 162 0
-334 169 0
-334 -64 0
334 -156 121 -162 -169 64 0
-335 -88 0
-335 187 0
-335 -72 0
-335 -43 0
-335 78 0
335 88 -187 72 43 -78 0
331 332 333 334 335 0
-336 -175 0
-336 -122 0
-336 -33 0
-336 -167 0
-336 101 0
336 175 122 33 167 -101 0
-337 22 0
-337 188 0
-337 -95 0
-337 -152 0
-337 -42 0
337 -22 -188 95 152 42 0
-338 141 0
-338 -38 0
-338 -42 0
-338 169 0
-338 -107 0
338 -141 38 42 -169 107 0
-339 138 0
-339 6 0
-339 -45 0
-339 86 0
-339 -35 0
339 -138 -6 45 -86 35 0
-340 120 0
-340 78 0
-340 97 0
-340 190 0
-340 135 0
340 -120 -78 -97 -190 -135 0
336 337 338 339 340 0
-341 88 0
-341 -179 0
-341 -50 0
-341 -27 0
-341 173 0
341 -88 179 50 27 -173 0
-342 181 0
-342 167 0
-342 -91 0
-342 168 0
-342 6 0
342 -181 -167 91 -168 -6 0
-343 176 0
-343 -61 0
-343 93 0
-343 -7 0
-343 -70 0
343 -176 61 -93 7 70 0
-344 -175 0
-344 -77 0
-344 -31 0
-344 -93 0
-344 95 0
344 175 77 31 93 -95 0
-345 -95 0
-345 33 0
-345 -91 0
-345 112 0
-345 -67 0
345 95 -33 91 -112 67 0
341 342 343 344 345 0
-346 156 0
-346 16 0
-346 -134 0
-346 -169 0
-346 183 0
346 -156 -16 134 169 -183 0
-347 11 0
-347 -80 0
-347 -43 0
-347 -137 0
-347 -28 0
347 -11 80 43 137 28 0
-348 -148 0
-348 2 0
-348 -44 0
-348 130 0
-348 140 0
348 148 -2 44 -130 -140 0
-349 48 0
-349 83 0
-349 -89 0
-349 10 0
-349 -80 0
349 -48 -83 89 -10 80 0
-350 -188 0
-350 123 0
-350 -176 0
-350 42 0
-350 -60 0
350 188 -123 176 -42 60 0
346 347 348 349 350 0
-351 175 0
-351 -139 0
-351 188 0
-351 -28 0
-351 128 0
351 -175 139 -188 28 -128 0
-352 -98 0
-352 -176 0
-352 -80 0
-352 -11 0
-352 -50 0
352 98 176 80 11 50 0
-353 134 0
-353 87 0
-353 -22 0
-353 77 0
-353 49 0
353 -134 -87 22 -77 -49 0
-354 -151 0
-354 133 0
-354 19 0
-354 117 0
-354 27 0
354 151 -133 -19 -117 -27 0
-355 -88 0
-355 -184 0
-355 149 0
-355 181 0
-355 3 0
355 88 184 -149 -181 -3 0
351 352 353 354 355 0
-356 84 0
-356 -41 0
-356 -71 0
-356 101 0
-356 138 0
356 -84 41 71 -101 -138 0
-357 132 0
-357 49 0
-357 46 0
-357 -110 0
-357 -70 0
357 -132 -49 -46 110 70 0
-358 164 0
-358 104 0
-358 -110 0
-358 128 0
-358 -41 0
358 -164 -104 110 -128 41 0
-359 -45 0
-359 -81 0
-359 134 0
-359 -103 0
-359 -182 0
359 45 81 -134 103 182 0
-360 173 0
-360 -18 0
-360 -190 0
-360 -92 0
-360 -50 0
360 -173 18 190 92 50 0
356 357 358 359 360 0
-361 -104 0
-361 -180 0
-361 -7 0
-361 109 0
-361 -184 0
361 104 180 7 -109 184 0
-362 91 0
-362 -10 0
-362 60 0
-362 58 0
-362 129 0
362 -91 10 -60 -58 -129 0
-363 13 0
-363 -84 0
-363 -134 0
-363 -111 0
-363 126 0
363 -13 84 134 111 -126 0
-364 131 0
-364 161 0
-364 136 0
-364 47 0
-364 34 0
364 -131 -161 -136 -47 -34 0
-365 -144 0
-365 145 0
-365 129 0
-365 -179 0
-365 100 0
365 144 -145 -129 179 -100 0
361 362 363 364 365 0
-366 -184 0
-366 -70 0
-366 -61 0
-366 -129 0
-366 -115 0
366 184 70 61 129 115 0
-367 -138 0
-367 -158 0
-367 -170 0
-367 -128 0
-367 146 0
367 138 158 170 128 -146 0
-368 -60 0
-368 -62 0
-368 -2 0
-368 88 0
-368 143 0
368 60 62 2 -88 -143 0
-369 -163 0
-369 119 0
-369 -147 0
-369 142 0
-369 82 0
369 163 -119 147 -142 -82 0
-370 6 0
-370 48 0
-370 -43 0
-370 40 0
-370 -161 0
370 -6 -48 43 -40 161 0
366 367 368 369 370 0
-371 127 0
-371 151 0
-371 -7 0
-371 -139 0
-371 -85 0
371 -127 -151 7 139 85 0
-372 -59 0
-372 -173 0
-372 -60 0
-372 152 0
-372 178 0
372 59 173 60 -152 -178 0
-373 49 0
-373 45 0
-373 -38 0
-373 -44 0
-373 190 0
373 -49 -45 38 44 -190 0
-374 -82 0
-374 -169 0
-374 -99 0
-374 172 0
-374 -111 0
374 82 169 99 -172 111 0
-375 -142 0
-375 -18 0
-375 177 0
-375 -189 0
-375 -112 0
375 142 18 -177 189 112 0
371 372 373 374 375 0
-376 110 0
-376 113 0
-376 -95 0
-376 32 0
-376 -168 0
376 -110 -113 95 -32 168 0
-377 -163 0
-377 129 0
-377 -24 0
-377 72 0
-377 -119 0
377 163 -129 24 -72 119 0
-378 -118 0
-378 -35 0
-378 72 0
-378 -190 0
-378 -59 0
378 118 35 -72 190 59 0
-379 -23 0
-379 190 0
-379 -185 0
-379 173 0
-379 -93 0
379 23 -190 185 -173 93 0
-380 -47 0
-380 75 0
-380 135 0
-380 -79 0
-380 -179 0
380 47 -75 -135 79 179 0
376 377 378 379 380 0
-381 -183 0
-381 54 0
-381 -35 0
-381 -189 0
-381 -25 0
381 183 -54 35 189 25 0
-382 62 0
-382 15 0
-382 -184 0
-382 -158 0
-382 -99 0
382 -62 -15 184 158 99 0
-383 157 0
-383 -95 0
-383 123 0
-383 14 0
-383 48 0
383 -157 95 -123 -14 -48 0
-384 169 0
-384 37 0
-384 -36 0
-384 114 0
-384 -127 0
384 -169 -37 36 -114 127 0
-385 -75 0
-385 -128 0
-385 -126 0
-385 -22 0
-385 47 0
385 75 128 126 22 -47 0
381 382 383 384 385 0
-386 57 0
-386 -53 0
-386 115 0
-386 15 0
-386 -36 0
386 -57 53 -115 -15 36 0
-387 185 0
-387 -118 0
-387 36 0
-387 -55 0
-387 51 0
387 -185 118 -36 55 -51 0
-388 33 0
-388 54 0
-388 32 0
-388 37 0
-388 -81 0
388 -33 -54 -32 -37 81 0
-389 -178 0
-389 -169 0
-389 177 0
-389 118 0
-389 134 0
389 178 169 -177 -118 -134 0
-390 6 0
-390 -182 0
-390 -46 0
-390 -80 0
-390 -36 0
390 -6 182 46 80 36 0
386 387 388 389 390 0
-391 -184 0
-391 -157 0
-391 186 0
-391 75 0
-391 -78 0
391 184 157 -186 -75 78 0
-392 -22 0
-392 139 0
-392 179 0
-392 -33 0
-392 84 0
392 22 -139 -179 33 -84 0
-393 -27 0
-393 166 0
-393 146 0
-393 -164 0
-393 -135 0
393 27 -166 -146 164 135 0
-394 114 0
-394 -169 0
-394 25 0
-394 -54 0
-394 39 0
394 -114 169 -25 54 -39 0
-395 -3 0
-395 56 0
-395 -83 0
-395 -75 0
-395 -183 0
395 3 -56 83 75 183 0
391 392 393 394 395 0
-396 -46 0
-396 23 0
-396 -117 0
-396 83 0
-396 82 0
396 46 -23 117 -83 -82 0
-397 -39 0
-397 32 0
-397 189 0
-397 -58 0
-397 80 0
397 39 -32 -189 58 -80 0
-398 32 0
-398 59 0
-398 -120 0
-398 -156 0
-398 -175 0
398 -32 -59 120 156 175 0
-399 -72 0
-399 -81 0
-399 -10 0
-399 -60 0
-399 -80 0
399 72 81 10 60 80 0
-400 -140 0
-400 189 0
-400 -173 0
-400 -82 0
-400 166 0
400 140 -189 173 82 -166 0
396 397 398 399 400 0
-401 -63 0
-401 69 0
-401 75 0
-401 35 0
-401 -153 0
401 63 -69 -75 -35 153 0
-402 -167 0
-402 33 0
-402 2 0
-402 178 0
-402 -123 0
402 167 -33 -2 -178 123 0
-403 -110 0
-403 -100 0
-403 18 0
-403 -26 0
-403 165 0
403 110 100 -18 26 -165 0
-404 -134 0
-404 97 0
-404 -141 0
-404 136 0
-404 -145 0
404 134 -97 141 -136 145 0
-405 -142 0
-405 161 0
-405 -39 0
-405 -107 0
-405 50 0
405 142 -161 39 107 -50 0
401 402 403 404 405 0
-406 -164 0
-406 115 0
-406 -182 0
-406 190 0
-406 -80 0
406 164 -115 182 -190 80 0
-407 -143 0
-407 -128 0
-407 -74 0
-407 1 0
-407 -165 0
407 143 128 74 -1 165 0
-408 170 0
-408 36 0
-408 -22 0
-408 -164 0
-408 -67 0
408 -170 -36 22 164 67 0
-409 44 0
-409 83 0
-409 82 0
-409 -26 0
-409 -121 0
409 -44 -83 -82 26 121 0
-410 7 0
-410 -22 0
-410 8 0
-410 -36 0
-410 165 0
410 -7 22 -8 36 -165 0
406 407 408 409 410 0
-411 -147 0
-411 173 0
-411 -85 0
-411 -68 0
-411 -11 0
411 147 -173 85 68 11 0
-412 -9 0
-412 -59 0
-412 137 0
-412 -111 0
-412 -38 0
412 9 59 -137 111 38 0
-413 25 0
-413 -57 0
-413 -177 0
-413 173 0
-413 -149 0
413 -25 57 177 -173 149 0
-414 -139 0
-414 -93 0
-414 27 0
-414 -110 0
-414 -43 0
414 139 93 -27 110 43 0
-415 -69 0
-415 67 0
-415 135 0
-415 -29 0
-415 134 0
415 69 -67 -135 29 -134 0
411 412 413 414 415 0
-416 -4 0
-416 84 0
-416 77 0
-416 70 0
-416 18 0
416 4 -84 -77 -70 -18 0
-417 -86 0
-417 -143 0
-417 33 0
-417 145 0
-417 -75 0
417 86 143 -33 -145 75 0
-418 58 0
-418 164 0
-418 -166 0
-418 109 0
-418 -8 0
418 -58 -164 166 -109 8 0
-419 134 0
-419 143 0
-419 117 0
-419 61 0
-419 123 0
419 -134 -143 -117 -61 -123 0
-420 77 0
-420 65 0
-420 -59 0
-420 60 0
-420 -138 0
420 -77 -65 59 -60 138 0
416 417 418 419 420 0
-421 -72 0
-421 33 0
-421 -125 0
-421 187 0
-421 -13 0
421 72 -33 125 -187 13 0
-422 -40 0
-422 -96 0
-422 107 0
-422 -36 0
-422 -159 0
422 40 96 -107 36 159 0
-423 47 0
-423 -109 0
-423 -165 0
-423 -105 0
-423 -87 0
423 -47 109 165 105 87 0
-424 -98 0
-424 45 0
-424 83 0
-424 54 0
-424 -50 0
424 98 -45 -83 -54 50 0
-425 44 0
-425 -148 0
-425 -79 0
-425 -33 0
-425 95 0
425 -44 148 79 33 -95 0
421 422 423 424 425 0
-426 176 0
-426 -47 0
-426 -148 0
-426 -11 0
-426 82 0
426 -176 47 148 11 -82 0
-427 -157 0
-427 171 0
-427 133 0
-427 -72 0
-427 -97 0
427 157 -171 -133 72 97 0
-428 -138 0
-428 125 0
-428 44 0
-428 -123 0
-428 159 0
428 138 -125 -44 123 -159 0
-429 83 0
-429 -115 0
-429 -91 0
-429 -27 0
-429 -146 0
429 -83 115 91 27 146 0
-430 -178 0
-430 166 0
-430 60 0
-430 127 0
-430 -19 0
430 178 -166 -60 -127 19 0
426 427 428 429 430 0
